228 300 107 197 106 168 149 197 140 162 138 112 111 187 181 189 168 122 121 187 193 196 171 165 181 157 200 108 172 174 195 113 197 102 109 170 170 124 166 109 187 103 188 198 156 168 153 123 156 174 177 114 169 113 179 115 136 178 123 107 151 118 187 114 187 163 184 122 187 115 199 173 185 186 171 140 120 123 130 142 163 173 157 198 186 135 112 189 180 102 162 130 187 149 110 173 111 194 161 198 108 159 171 159 145 107 200 131 197 129 173 125 101 129 122 153 131 100 107 110 102 170 106 155 118 117 194 129 110 155 193 186 113 129 144 124 136 109 155 199 138 128 123 105 123 111 125 154 112 132 164 114 101 171 170 186 188 129 114 164 184 174 115 198 102 126 121 105 135 177 103 140 171 194 145 194 104 136 148 116 169 111 198 136 148 133 122 135 162 136 200 146 176 114 109 179 106 197 184 142 139 153 182 109 146 193 170 117 129 117 133 164 195 197 200 143 129 121 144 158 124 109 170 200 191 179 178 197 175 127 